(declare-fun c () String)
(declare-fun g () String)
(declare-fun b () String)
(declare-fun d () String)
(declare-fun f () String)
(declare-fun a () String)
(declare-fun h () String)
(assert (= (str.++ f f "h" b h) (str.++ d g "h" a "eb")))
(assert (= (str.++ c "c" d "a" g) (str.++ "d" h "ehe")))
(assert (= (str.++ "ec" c) "cefh"))

(check-sat)
